42706
100011100101000000011001110110
27 11 0 27 5 6 5 11 27 28 4 28 20 23 19 28 20 20 27 0 25 24 5 24 5 27 27 6 4 0 6 4 4 24 27 6 20 9 27 24 25 9 11 4 20 4 5 24 19 20 24 24 24 24 9 6 25 9 11 25 4 0 27 5 23 11 0 19 19 25 25 6 0 9 23 5 20 5 20 24 23 5 9 25 4 23 19 5 24 25 28 6 25 25 5 5 27 6 28 28 19 24 11 25 4 0 4 27 27 9 19 4 27 6 6 4 28 11 28 19 9 25 28 19 4 27 24 11 19 0 28 24 11 20 5 9 23 20 28 9 6 24 11 27 25 5 24 0 0 11 24 28 23 27 20 11 5 24 20 23 20 27 23 24 5 11 5 4 23 0 5 20 28 20 9 0 0 20 4 20 23 0 5 6 11 9 11 23 0 27 5 24 6 4 27 6 27 0 5 19 